
Gurobi 10.0.1 (linux64) logging started Sun Nov 26 15:37:29 2023

Set parameter LogFile to value "ArtificialInstance/ExperimentV2/S4T4K2/AdRo/gurobi1.txt"
Gurobi Optimizer version 10.0.1 build v10.0.1rc0 (linux64)

CPU model: AMD EPYC 7H12 64-Core Processor, instruction set [SSE2|AVX|AVX2]
Thread count: 128 physical cores, 128 logical processors, using up to 32 threads

Academic license 656792 - for non-commercial use only - registered to b.___@student.vu.nl
Optimize a model with 11274 rows, 10816 columns and 41929 nonzeros
Model fingerprint: 0x20778f8b
Variable types: 1 continuous, 10815 integer (10815 binary)
Coefficient statistics:
  Matrix range     [1e+00, 4e+01]
  Objective range  [1e+00, 2e+01]
  Bounds range     [1e+00, 1e+00]
  RHS range        [1e+00, 1e+00]
Presolve removed 1947 rows and 1995 columns
Presolve time: 0.17s
Presolved: 9327 rows, 8821 columns, 35350 nonzeros
Variable types: 1 continuous, 8820 integer (8820 binary)
Found heuristic solution: objective 387.8770518

Root relaxation: objective 6.712556e+01, 8279 iterations, 1.03 seconds (0.87 work units)

    Nodes    |    Current Node    |     Objective Bounds      |     Work
 Expl Unexpl |  Obj  Depth IntInf | Incumbent    BestBd   Gap | It/Node Time

     0     0   67.12556    0  875  387.87705   67.12556  82.7%     -    1s
H    0     0                     350.5153043   67.12556  80.8%     -    1s
H    0     0                     109.5936354   67.12556  38.8%     -    1s
H    0     0                      69.5834959   68.13455  2.08%     -    2s
     0     0   68.13455    0  921   69.58350   68.13455  2.08%     -    2s
     0     0   68.20133    0   57   69.58350   68.20133  1.99%     -    2s
H    0     0                      68.2013317   68.20133  0.00%     -    2s

Cutting planes:
  Gomory: 3
  Zero half: 23

Explored 1 nodes (13665 simplex iterations) in 2.37 seconds (1.65 work units)
Thread count was 32 (of 128 available processors)

Solution count 5: 68.2013 69.5835 109.594 ... 387.877

Optimal solution found (tolerance 1.00e-04)
Best objective 6.820133171192e+01, best bound 6.820133139196e+01, gap 0.0000%
